6

0   18   5   9   1   6
18   0   24   13   7   6
5   24   0   23   15   4
9   13   23   0   11   11
1   7   15   11   0   6
6   6   4   11   6   0

0   34   32   4   12   30
34   0   22   34   38   14
32   22   0   36   20   8
4   34   36   0   16   34
12   38   20   16   0   24
30   14   8   34   24   0